%%%mzn-stat: initTime=0.010539718
%%%mzn-stat: objective=252
%%%mzn-stat: nodes=25103
%%%mzn-stat: restarts=0
%%%mzn-stat: peakDepth=393
%%%mzn-stat: solveTime=1.604723426
%%%mzn-stat: variables=1028
%%%mzn-stat: propagators=754
%%%mzn-stat: failures=5727
%%%mzn-stat: propagations=312663
%%%mzn-stat: nogoods=5727
%%%mzn-stat: AverageConflictSize=34.48646760956871
%%%mzn-stat: NumUnitNogoodsLearned=251
%%%mzn-stat: AverageLearnedNogoodLength=40.05622489959839
%%%mzn-stat: AverageBacktrackAmount=0
%%%mzn-stat: AverageLbd=17.91740876549677
%%%mzn-stat-end
maxleg = 252;
succ = array1d(1..50,[30, 8, 40, 28, 7, 38, 1, 23, 29, 34, 45, 31, 46, 5, 13, 11, 4, 50, 32, 18, 42, 43, 20, 14, 6, 39, 12, 24, 37, 22, 2, 3, 44, 27, 36, 48, 41, 47, 49, 17, 26, 10, 25, 9, 35, 33, 21, 19, 16, 15]);
% time elapsed: 3.23 s
----------
==========
% time elapsed: 3.23 s
%%%mzn-stat: initTime=0.010539718
%%%mzn-stat: objective=252
%%%mzn-stat: nodes=25103
%%%mzn-stat: restarts=0
%%%mzn-stat: peakDepth=393
%%%mzn-stat: solveTime=1.6047266709999999
%%%mzn-stat: variables=1028
%%%mzn-stat: propagators=754
%%%mzn-stat: failures=5727
%%%mzn-stat: propagations=312663
%%%mzn-stat: nogoods=5727
%%%mzn-stat: AverageConflictSize=34.48646760956871
%%%mzn-stat: NumUnitNogoodsLearned=251
%%%mzn-stat: AverageLearnedNogoodLength=40.05622489959839
%%%mzn-stat: AverageBacktrackAmount=0
%%%mzn-stat: AverageLbd=17.91740876549677
%%%mzn-stat-end
